
Gurobi 9.1.1 (linux64) logging started Thu Dec  2 08:34:02 2021

Changed value of parameter LogFile to /home/aniket/python_scripts/Plasmids-Optimization/exp/2021-06-14__iterative_MILP_edge_novelty/output/sample_97/1.1.1/nplasmids_1/MILP/m.log
   Prev:   Default: 
Changed value of parameter TimeLimit to 240.0
   Prev: inf  Min: 0.0  Max: inf  Default: inf
Changed value of parameter MIPGap to 0.05
   Prev: 0.0001  Min: 0.0  Max: inf  Default: 0.0001
Gurobi Optimizer version 9.1.1 build v9.1.1rc0 (linux64)
Thread count: 2 physical cores, 4 logical processors, using up to 4 threads
Optimize a model with 58056 rows, 19542 columns and 174041 nonzeros
Model fingerprint: 0x42e9fa62
Variable types: 4191 continuous, 15351 integer (14513 binary)
Coefficient statistics:
  Matrix range     [1e-02, 6e+05]
  Objective range  [1e-02, 1e+00]
  Bounds range     [1e+00, 1e+00]
  RHS range        [1e+00, 2e+05]
Presolve removed 51196 rows and 8278 columns
Presolve time: 0.38s
Presolved: 6860 rows, 11264 columns, 44772 nonzeros
Variable types: 1649 continuous, 9615 integer (9615 binary)
Found heuristic solution: objective -0.0131813

Root relaxation: objective -6.953476e+01, 5849 iterations, 0.31 seconds

    Nodes    |    Current Node    |     Objective Bounds      |     Work
 Expl Unexpl |  Obj  Depth IntInf | Incumbent    BestBd   Gap | It/Node Time

     0     0  -69.53476    0  478   -0.01318  -69.53476      -     -    0s
     0     0  -66.61533    0  513   -0.01318  -66.61533      -     -    1s
H    0     0                      -0.5322581  -66.61533      -     -    3s
     0     0  -66.38622    0  575   -0.53226  -66.38622      -     -    3s
H    0     0                      -9.5789040  -66.38622   593%     -    4s
     0     0  -66.38622    0  581   -9.57890  -66.38622   593%     -    4s
     0     0  -66.15963    0  485   -9.57890  -66.15963   591%     -    4s
     0     0  -66.14639    0  513   -9.57890  -66.14639   591%     -    5s
     0     0  -66.13305    0  481   -9.57890  -66.13305   590%     -    5s
     0     0  -66.12836    0  475   -9.57890  -66.12836   590%     -    5s
     0     0  -66.12836    0  474   -9.57890  -66.12836   590%     -    5s
     0     0  -66.11720    0  489   -9.57890  -66.11720   590%     -    5s
     0     0  -66.11720    0  465   -9.57890  -66.11720   590%     -    5s
     0     0  -66.11720    0  476   -9.57890  -66.11720   590%     -    5s
     0     0  -66.11720    0  477   -9.57890  -66.11720   590%     -    5s
     0     0  -66.11720    0  489   -9.57890  -66.11720   590%     -    6s
     0     0  -66.11720    0  476   -9.57890  -66.11720   590%     -    6s
     0     0  -66.11720    0  497   -9.57890  -66.11720   590%     -    6s
     0     0  -66.11720    0  497   -9.57890  -66.11720   590%     -    7s
     0     2  -66.11720    0  497   -9.57890  -66.11720   590%     -    7s
H   38    41                     -46.4239734  -66.11720  42.4%   351   16s
H   39    41                     -59.4396987  -66.11720  11.2%   364   16s
H   40    43                     -62.5851775  -66.11720  5.64%   357   18s
    55    46  -65.99577    4  481  -62.58518  -66.11720  5.64%   486   20s
   222   111  -63.68460   40  243  -62.58518  -66.11669  5.64%   274   25s
   402   182  -65.96069   11  475  -62.58518  -66.10780  5.63%   230   30s
   563   256  -63.77562   51  216  -62.58518  -66.10765  5.63%   215   35s
H  598   267                     -62.5851776  -66.10765  5.63%   209   39s
   637   285  -65.47538   19  431  -62.58518  -66.10765  5.63%   205   41s
H  650   285                     -62.5851971  -66.10765  5.63%   203   41s

Cutting planes:
  Gomory: 103
  MIR: 11
  Flow cover: 246
  Zero half: 7
  RLT: 568

Explored 745 nodes (177507 simplex iterations) in 43.11 seconds
Thread count was 4 (of 4 available processors)

Solution count 8: -62.5852 -62.5852 -62.5852 ... -0.0131813

Solve interrupted
Best objective -6.258519710031e+01, best bound -6.607367051306e+01, gap 5.5740%

Gurobi 9.1.1 (linux64) logging started Thu Dec  2 08:34:46 2021

Changed value of parameter LogFile to /home/aniket/python_scripts/Plasmids-Optimization/exp/2021-06-14__iterative_MILP_edge_novelty/output/sample_97/1.1.1/nplasmids_1/MILP/m.log
   Prev:   Default: 
Changed value of parameter TimeLimit to 240.0
   Prev: inf  Min: 0.0  Max: inf  Default: inf
Changed value of parameter MIPGap to 0.05
   Prev: 0.0001  Min: 0.0  Max: inf  Default: 0.0001
